100
128
32
25
30
9
8
32
51
29
39
6
57
2
28
16
16
29
31
31
3
26
30
17
54
32
34
29
10
45
18
57
36
19
41
26
55
54
28
33
29
9
21
14
1
26
27
59
55
2
9
11
10
24
23
4
9
53
52
58
1
15
13
46
27
19
12
17
48
64
53
27
48
2
6
37
64
31
34
14
4
43
53
21
20
38
1
56
20
20
15
32
2
46
55
27
32
3
40
1
56
17